(declare-fun v0 () (_ BitVec 10))
(declare-fun v11 () (_ BitVec 3))
(declare-fun v12 () (_ BitVec 9))
(declare-fun v18 () (_ BitVec 13))
(assert
(let (($e1 (_ bv0 1)))
(let (($e10 (_ bv248 15)))
(let (($e14 (_ bv343 9)))
(let (($e20 (_ bv1 1)))
(let (($e26 (_ bv3 2)))
(let (($e31 (_ bv0 8)))
(let (($e84 (concat $e1 v0)))
(let (($e85               $e84              ))
(let (($e87                   $e26      ))
(let (($e88 (concat $e87 v12)))
(let (($e89      (bvult $e88        $e85 )         ))
(let (($e90                    $e89            ))
(let (($e91 (concat $e31 $e90)))
(let (($e92 (bvand        $e14         $e91 )))
(let (($e123                  v18 ))
(let (($e124             $e123 ))
(let (($e373 ((_ extract 9 8) $e10)))
(let (($e375                    $e20     ))
(let (($e376 (concat $e375 $e373)))
(let (($e377      (bvult $e376 v11)         ))
(let (($e378                    $e377            ))
(let (($e761 (concat $e31 $e378)))
(let (($e762 (bvand $e761 $e92)))
(let (($e1245                              $e124  ))
(let (($e1337 (   extract             $e1245 )))
(let (($e1338              $e1337          ))
(let (($e1339             $e1338 ))
              (ite        $e1339  $e92 $e762)
                                                                                                                                                                                                                                                                                                                                                                                                                                                                                                                                                                                                                                                                                                                                                                                                                                                                                                                                                                                                                                                                                                                                                                                                                                                                                                                                                                                                                                                                                                                                                                                                                                                                                                                                                                                                                                                                                                                                                                                                                                                                                                                                                                                                                                                  )))                                                                                           )                                                                                                                                                                                                                                                                                                                                                                                                                                                                                                  ))                                                                                                                                                                                                                                                                                                                                                                                              )))) )                                                                                                                                                                                                                                                        ))                              )))))) ))                               )    )     )     )   )        ))
